;symbolic execution tree
(push)
(assert (le x0 java.lang.Object))
(check-sat)
(push)
(assert (le x0 java.util.Hashtable))
(check-sat)
(push)
(assert (not (le x0 java.util.Hashtable)))
(check-sat)
(pop)
(push)
(assert (le x0 java.util.Hashtable))
(check-sat)
(push)
(assert (le x0 java.util.Hashtable))
(check-sat)
(push)
(assert (le x0 java.util.Hashtable))
(check-sat)
(pop)
(push)
(assert (not (le x0 java.util.Hashtable)))
(check-sat)
(pop)
(pop)
(push)
(assert (not (le x0 java.util.Hashtable)))
(check-sat)
(pop)
(push)
(assert (le x0 java.util.Hashtable))
(check-sat)
(pop)
(push)
(assert (not (le x0 java.util.Hashtable)))
(check-sat)
(pop)
(push)
(assert (le x0 java.util.Hashtable))
(check-sat)
(pop)
(push)
(assert (not (le x0 java.util.Hashtable)))
(check-sat)
(pop)
(push)
(assert (le x0 java.util.Hashtable))
(check-sat)
(pop)
(push)
(assert (not (le x0 java.util.Hashtable)))
(check-sat)
(pop)
(pop)
(push)
(assert (le x0 java.util.AbstractMap))
(check-sat)
(push)
(assert (le x0 java.util.Hashtable))
(check-sat)
(push)
(assert (not (le x0 java.util.Hashtable)))
(check-sat)
(pop)
(push)
(assert (le x0 java.util.Hashtable))
(check-sat)
(push)
(assert (le x0 java.util.Hashtable))
(check-sat)
(pop)
(push)
(assert (not (le x0 java.util.Hashtable)))
(check-sat)
(pop)
(pop)
(push)
(assert (le x0 java.util.AbstractMap))
(check-sat)
(pop)
(push)
(assert (le x0 java.awt.RenderingHints))
(check-sat)
(pop)
(push)
(assert (le x0 weka.core.ProtectedProperties))
(check-sat)
(push)
(assert (le x0 java.util.Hashtable))
(check-sat)
(pop)
(push)
(assert (not (le x0 java.util.Hashtable)))
(check-sat)
(pop)
(pop)
(pop)
(push)
(assert (not (le x0 java.util.Hashtable)))
(check-sat)
(pop)
(push)
(assert (le x0 java.util.Hashtable))
(check-sat)
(pop)
(push)
(assert (not (le x0 java.util.Hashtable)))
(check-sat)
(pop)
(push)
(assert (le x0 java.util.Hashtable))
(check-sat)
(push)
(assert (le x0 java.util.Hashtable))
(check-sat)
(pop)
(push)
(assert (not (le x0 java.util.Hashtable)))
(check-sat)
(pop)
(pop)
(push)
(assert (not (le x0 java.util.Hashtable)))
(check-sat)
(pop)
(push)
(assert (le x0 java.util.Hashtable))
(check-sat)
(pop)
(push)
(assert (not (le x0 java.util.Hashtable)))
(check-sat)
(pop)
(push)
(assert (le x0 java.util.Hashtable))
(check-sat)
(pop)
(push)
(assert (not (le x0 java.util.Hashtable)))
(check-sat)
(pop)
(push)
(assert (le x0 java.util.Hashtable))
(check-sat)
(push)
(assert (not (le x0 java.util.Hashtable)))
(check-sat)
(pop)
(push)
(assert (le x0 java.util.Hashtable))
(check-sat)
(pop)
(push)
(assert (le x0 java.util.AbstractMap))
(check-sat)
(push)
(assert (le x0 java.util.Hashtable))
(check-sat)
(pop)
(push)
(assert (not (le x0 java.util.Hashtable)))
(check-sat)
(pop)
(push)
(assert (le x0 java.util.Hashtable))
(check-sat)
(pop)
(push)
(assert (not (le x0 java.util.Hashtable)))
(check-sat)
(pop)
(pop)
(push)
(assert (le x0 java.awt.RenderingHints))
(check-sat)
(push)
(assert (le x0 java.util.Hashtable))
(check-sat)
(pop)
(push)
(assert (not (le x0 java.util.Hashtable)))
(check-sat)
(pop)
(pop)
(push)
(assert (le x0 weka.core.ProtectedProperties))
(check-sat)
(pop)
(pop)
(push)
(assert (not (le x0 java.util.Hashtable)))
(check-sat)
(pop)
(pop)
(push)
(assert (le x0 java.awt.RenderingHints))
(check-sat)
(push)
(assert (le x0 java.util.Hashtable))
(check-sat)
(push)
(assert (le x0 java.util.Hashtable))
(check-sat)
(pop)
(push)
(assert (not (le x0 java.util.Hashtable)))
(check-sat)
(pop)
(pop)
(push)
(assert (not (le x0 java.util.Hashtable)))
(check-sat)
(pop)
(pop)
(push)
(assert (le x0 weka.core.ProtectedProperties))
(check-sat)
(push)
(assert (le x0 java.util.Hashtable))
(check-sat)
(pop)
(push)
(assert (not (le x0 java.util.Hashtable)))
(check-sat)
(pop)
(push)
(assert (le x0 java.util.Hashtable))
(check-sat)
(push)
(assert (le x0 java.util.Hashtable))
(check-sat)
(push)
(assert (le x0 java.util.Hashtable))
(check-sat)
(pop)
(push)
(assert (not (le x0 java.util.Hashtable)))
(check-sat)
(pop)
(push)
(assert (le x0 java.util.Hashtable))
(check-sat)
(pop)
(push)
(assert (not (le x0 java.util.Hashtable)))
(check-sat)
(pop)
(pop)
(push)
(assert (not (le x0 java.util.Hashtable)))
(check-sat)
(pop)
(pop)
(push)
(assert (not (le x0 java.util.Hashtable)))
(check-sat)
(pop)
(push)
(assert (le x0 java.util.Hashtable))
(check-sat)
(push)
(assert (le x0 java.util.Hashtable))
(check-sat)
(pop)
(push)
(assert (not (le x0 java.util.Hashtable)))
(check-sat)
(pop)
(pop)
(push)
(assert (not (le x0 java.util.Hashtable)))
(check-sat)
(pop)
(push)
(assert (le x0 java.util.Hashtable))
(check-sat)
(push)
(assert (le x0 java.util.Hashtable))
(check-sat)
(pop)
(push)
(assert (not (le x0 java.util.Hashtable)))
(check-sat)
(pop)
(push)
(assert (le x0 java.util.Hashtable))
(check-sat)
(push)
(assert (le x0 java.util.Hashtable))
(check-sat)
(pop)
(push)
(assert (not (le x0 java.util.Hashtable)))
(check-sat)
(pop)
(pop)
(push)
(assert (not (le x0 java.util.Hashtable)))
(check-sat)
(pop)
(pop)
(push)
(assert (not (le x0 java.util.Hashtable)))
(check-sat)
(pop)
(push)
(assert (le x0 java.util.Hashtable))
(check-sat)
(pop)
(push)
(assert (not (le x0 java.util.Hashtable)))
(check-sat)
(pop)
(pop)
(push)
(assert (not (le x0 java.util.Hashtable)))
(check-sat)
(pop)
(push)
(assert (le x0 java.util.Hashtable))
(check-sat)
(pop)
(push)
(assert (le x0 java.util.AbstractMap))
(check-sat)
(push)
(assert (le x0 java.util.Hashtable))
(check-sat)
(pop)
(push)
(assert (not (le x0 java.util.Hashtable)))
(check-sat)
(pop)
(push)
(assert (le x0 java.util.Hashtable))
(check-sat)
(pop)
(push)
(assert (not (le x0 java.util.Hashtable)))
(check-sat)
(pop)
(pop)
(push)
(assert (le x0 java.awt.RenderingHints))
(check-sat)
(pop)
(push)
(assert (le x0 weka.core.ProtectedProperties))
(check-sat)
(pop)
(push)
(assert (le x0 java.util.Hashtable))
(check-sat)
(push)
(assert (le x0 java.util.Hashtable))
(check-sat)
(push)
(assert (not (le x0 java.util.Hashtable)))
(check-sat)
(pop)
(push)
(assert (le x0 java.util.Hashtable))
(check-sat)
(pop)
(push)
(assert (le x0 java.util.AbstractMap))
(check-sat)
(pop)
(push)
(assert (le x0 java.awt.RenderingHints))
(check-sat)
(push)
(assert (le x0 java.util.Hashtable))
(check-sat)
(pop)
(push)
(assert (not (le x0 java.util.Hashtable)))
(check-sat)
(pop)
(push)
(assert (le x0 java.util.Hashtable))
(check-sat)
(pop)
(push)
(assert (not (le x0 java.util.Hashtable)))
(check-sat)
(pop)
(push)
(assert (le x0 java.util.Hashtable))
(check-sat)
(pop)
(push)
(assert (not (le x0 java.util.Hashtable)))
(check-sat)
(pop)
(pop)
(push)
(assert (le x0 weka.core.ProtectedProperties))
(check-sat)
(pop)
(push)
(assert (le x0 java.util.Hashtable))
(check-sat)
(pop)
(push)
(assert (not (le x0 java.util.Hashtable)))
(check-sat)
(pop)
(pop)
(push)
(assert (not (le x0 java.util.Hashtable)))
(check-sat)
(pop)
(push)
(assert (le x0 java.util.Hashtable))
(check-sat)
(push)
(assert (le x0 java.util.Hashtable))
(check-sat)
(pop)
(push)
(assert (not (le x0 java.util.Hashtable)))
(check-sat)
(pop)
(push)
(assert (le x0 java.util.Hashtable))
(check-sat)
(pop)
(push)
(assert (not (le x0 java.util.Hashtable)))
(check-sat)
(pop)
(pop)
(push)
(assert (not (le x0 java.util.Hashtable)))
(check-sat)
(pop)
(pop)
(push)
(assert (not (le x0 java.util.Hashtable)))
(check-sat)
(pop)
(push)
(assert (le x0 java.util.Hashtable))
(check-sat)
(push)
(assert (le x0 java.util.Hashtable))
(check-sat)
(pop)
(push)
(assert (not (le x0 java.util.Hashtable)))
(check-sat)
(pop)
(pop)
(push)
(assert (not (le x0 java.util.Hashtable)))
(check-sat)
(pop)
(push)
(assert (le x0 java.util.Hashtable))
(check-sat)
(push)
(assert (not (le x0 java.util.Hashtable)))
(check-sat)
(pop)
(push)
(assert (le x0 java.util.Hashtable))
(check-sat)
(pop)
(push)
(assert (le x0 java.util.AbstractMap))
(check-sat)
(pop)
(push)
(assert (le x0 java.awt.RenderingHints))
(check-sat)
(pop)
(push)
(assert (le x0 weka.core.ProtectedProperties))
(check-sat)
(pop)
(pop)
(push)
(assert (not (le x0 java.util.Hashtable)))
(check-sat)
(pop)
(push)
(assert (not (le x0 java.util.Hashtable)))
(check-sat)
(pop)
(push)
(assert (le x0 java.util.Hashtable))
(check-sat)
(push)
(assert (le x0 java.util.Hashtable))
(check-sat)
(push)
(assert (not (le x0 java.util.Hashtable)))
(check-sat)
(pop)
(push)
(assert (le x0 java.util.Hashtable))
(check-sat)
(pop)
(push)
(assert (le x0 java.util.AbstractMap))
(check-sat)
(pop)
(push)
(assert (le x0 java.awt.RenderingHints))
(check-sat)
(push)
(assert (le x0 java.util.Hashtable))
(check-sat)
(pop)
(push)
(assert (not (le x0 java.util.Hashtable)))
(check-sat)
(pop)
(pop)
(push)
(assert (le x0 weka.core.ProtectedProperties))
(check-sat)
(push)
(assert (le x0 java.util.Hashtable))
(check-sat)
(pop)
(push)
(assert (not (le x0 java.util.Hashtable)))
(check-sat)
(pop)
(push)
(assert (le x0 java.util.Hashtable))
(check-sat)
(pop)
(push)
(assert (not (le x0 java.util.Hashtable)))
(check-sat)
(pop)
(push)
(assert (le x0 java.util.Hashtable))
(check-sat)
(pop)
(push)
(assert (not (le x0 java.util.Hashtable)))
(check-sat)
(pop)
(pop)
(push)
(assert (le x0 java.util.Hashtable))
(check-sat)
(pop)
(push)
(assert (not (le x0 java.util.Hashtable)))
(check-sat)
(pop)
(push)
(assert (le x0 java.util.Hashtable))
(check-sat)
(pop)
(push)
(assert (not (le x0 java.util.Hashtable)))
(check-sat)
(pop)
(pop)
(push)
(assert (not (le x0 java.util.Hashtable)))
(check-sat)
(pop)
(push)
(assert (le x0 java.util.Hashtable))
(check-sat)
(pop)
(push)
(assert (not (le x0 java.util.Hashtable)))
(check-sat)
(pop)
(push)
(assert (le x0 java.util.Hashtable))
(check-sat)
(push)
(assert (le x0 java.util.Hashtable))
(check-sat)
(pop)
(push)
(assert (not (le x0 java.util.Hashtable)))
(check-sat)
(pop)
(pop)
(push)
(assert (not (le x0 java.util.Hashtable)))
(check-sat)
(pop)
(pop)
(push)
(assert (le x0 java.util.AbstractMap))
(check-sat)
(push)
(assert (le x0 java.util.Hashtable))
(check-sat)
(pop)
(push)
(assert (not (le x0 java.util.Hashtable)))
(check-sat)
(pop)
(push)
(assert (le x0 java.util.Hashtable))
(check-sat)
(push)
(assert (le x0 java.util.Hashtable))
(check-sat)
(pop)
(push)
(assert (not (le x0 java.util.Hashtable)))
(check-sat)
(pop)
(push)
(assert (le x0 java.util.Hashtable))
(check-sat)
(pop)
(push)
(assert (not (le x0 java.util.Hashtable)))
(check-sat)
(pop)
(push)
(assert (not (le x0 java.util.Hashtable)))
(check-sat)
(pop)
(push)
(assert (le x0 java.util.Hashtable))
(check-sat)
(pop)
(push)
(assert (le x0 java.util.AbstractMap))
(check-sat)
(pop)
(push)
(assert (le x0 java.awt.RenderingHints))
(check-sat)
(pop)
(push)
(assert (le x0 weka.core.ProtectedProperties))
(check-sat)
(push)
(assert (le x0 java.util.Hashtable))
(check-sat)
(pop)
(push)
(assert (not (le x0 java.util.Hashtable)))
(check-sat)
(pop)
(pop)
(push)
(assert (le x0 java.util.Hashtable))
(check-sat)
(pop)
(push)
(assert (not (le x0 java.util.Hashtable)))
(check-sat)
(pop)
(push)
(assert (le x0 java.util.Hashtable))
(check-sat)
(pop)
(push)
(assert (not (le x0 java.util.Hashtable)))
(check-sat)
(pop)
(push)
(assert (le x0 java.util.Hashtable))
(check-sat)
(pop)
(push)
(assert (not (le x0 java.util.Hashtable)))
(check-sat)
(pop)
(pop)
(push)
(assert (not (le x0 java.util.Hashtable)))
(check-sat)
(pop)
(pop)
(push)
(assert (le x0 java.awt.RenderingHints))
(check-sat)
(pop)
(push)
(assert (le x0 weka.core.ProtectedProperties))
(check-sat)
(pop)
(push)
(assert (le x0 java.util.Hashtable))
(check-sat)
(pop)
(push)
(assert (not (le x0 java.util.Hashtable)))
(check-sat)
(pop)
(pop)
(push)
(assert (not (le x0 java.util.Hashtable)))
(check-sat)
(push)
(assert (not (le x0 java.util.Hashtable)))
(check-sat)
(push)
(assert (le x0 java.util.Hashtable))
(check-sat)
(pop)
(push)
(assert (not (le x0 java.util.Hashtable)))
(check-sat)
(pop)
(push)
(assert (le x0 java.util.Hashtable))
(check-sat)
(pop)
(push)
(assert (not (le x0 java.util.Hashtable)))
(check-sat)
(push)
(assert (le x0 java.util.Hashtable))
(check-sat)
(pop)
(push)
(assert (not (le x0 java.util.Hashtable)))
(check-sat)
(pop)
(push)
(assert (le x0 java.util.Hashtable))
(check-sat)
(pop)
(push)
(assert (not (le x0 java.util.Hashtable)))
(check-sat)
(push)
(assert (le x0 java.util.Hashtable))
(check-sat)
(pop)
(push)
(assert (not (le x0 java.util.Hashtable)))
(check-sat)
(pop)
(pop)
(push)
(assert (le x0 java.util.Hashtable))
(check-sat)
(pop)
(push)
(assert (not (le x0 java.util.Hashtable)))
(check-sat)
(pop)
(pop)
(push)
(assert (le x0 java.util.Hashtable))
(check-sat)
(pop)
(push)
(assert (not (le x0 java.util.Hashtable)))
(check-sat)
(pop)
(push)
(assert (le x0 java.util.Hashtable))
(check-sat)
(pop)
(push)
(assert (not (le x0 java.util.Hashtable)))
(check-sat)
(pop)
(push)
(assert (le x0 java.util.Hashtable))
(check-sat)
(pop)
(push)
(assert (not (le x0 java.util.Hashtable)))
(check-sat)
(pop)
(push)
(assert (le x0 java.util.Hashtable))
(check-sat)
(pop)
(push)
(assert (not (le x0 java.util.Hashtable)))
(check-sat)
(pop)
(push)
(assert (le x0 java.util.Hashtable))
(check-sat)
(pop)
(push)
(assert (not (le x0 java.util.Hashtable)))
(check-sat)
(pop)
(push)
(assert (le x0 java.util.Hashtable))
(check-sat)
(pop)
(push)
(assert (not (le x0 java.util.Hashtable)))
(check-sat)
(push)
(assert (le x0 java.util.Hashtable))
(check-sat)
(pop)
(push)
(assert (not (le x0 java.util.Hashtable)))
(check-sat)
(pop)
(pop)
(push)
(assert (le x0 java.util.Hashtable))
(check-sat)
(pop)
(push)
(assert (not (le x0 java.util.Hashtable)))
(check-sat)
(pop)
(push)
(assert (le x0 java.util.Hashtable))
(check-sat)
(pop)
(push)
(assert (not (le x0 java.util.Hashtable)))
(check-sat)
(pop)
(pop)
(push)
(assert (le x0 java.util.Hashtable))
(check-sat)
(pop)
(push)
(assert (le x0 java.util.AbstractMap))
(check-sat)
(pop)
(push)
(assert (le x0 java.awt.RenderingHints))
(check-sat)
(push)
(assert (le x0 java.util.Hashtable))
(check-sat)
(pop)
(push)
(assert (not (le x0 java.util.Hashtable)))
(check-sat)
(push)
(assert (not (le x0 java.util.Hashtable)))
(check-sat)
(pop)
(push)
(assert (le x0 java.util.Hashtable))
(check-sat)
(pop)
(push)
(assert (le x0 java.util.AbstractMap))
(check-sat)
(pop)
(push)
(assert (le x0 java.awt.RenderingHints))
(check-sat)
(pop)
(push)
(assert (le x0 weka.core.ProtectedProperties))
(check-sat)
(pop)
(push)
(assert (le x0 java.util.Hashtable))
(check-sat)
(pop)
(push)
(assert (not (le x0 java.util.Hashtable)))
(check-sat)
(pop)
(push)
(assert (le x0 java.util.Hashtable))
(check-sat)
(pop)
(push)
(assert (not (le x0 java.util.Hashtable)))
(check-sat)
(pop)
(push)
(assert (le x0 java.util.Hashtable))
(check-sat)
(pop)
(push)
(assert (not (le x0 java.util.Hashtable)))
(check-sat)
(pop)
(pop)
(pop)
(push)
(assert (le x0 weka.core.ProtectedProperties))
(check-sat)
(pop)
(push)
(assert (not (le x0 java.util.Hashtable)))
(check-sat)
(push)
(assert (le x0 java.util.Hashtable))
(check-sat)
(pop)
(push)
(assert (not (le x0 java.util.Hashtable)))
(check-sat)
(pop)
(pop)
(push)
(assert (le x0 java.util.Hashtable))
(check-sat)
(pop)
(push)
(assert (le x0 java.util.AbstractMap))
(check-sat)
(push)
(assert (le x0 java.util.Hashtable))
(check-sat)
(pop)
(push)
(assert (not (le x0 java.util.Hashtable)))
(check-sat)
(pop)
(push)
(assert (le x0 java.util.Hashtable))
(check-sat)
(pop)
(push)
(assert (not (le x0 java.util.Hashtable)))
(check-sat)
(push)
(assert (le x0 java.util.Hashtable))
(check-sat)
(pop)
(push)
(assert (not (le x0 java.util.Hashtable)))
(check-sat)
(pop)
(pop)
(pop)
(push)
(assert (le x0 java.awt.RenderingHints))
(check-sat)
(push)
(assert (le x0 java.util.Hashtable))
(check-sat)
(pop)
(push)
(assert (not (le x0 java.util.Hashtable)))
(check-sat)
(pop)
(pop)
(push)
(assert (le x0 weka.core.ProtectedProperties))
(check-sat)
(pop)
(pop)
